multiobj/instances/reallike/Ter-rl-5-2--0.80-1.0-3.in
5 2
0 59 64 103 62 
59 0 70 49 40 
64 70 0 118 33 
103 49 118 0 85 
62 40 33 85 0 
0 43 5686 24948 0 
43 0 0 8692 0 
5686 0 0 0 110 
24948 8692 0 0 35898 
0 0 110 35898 0 
0 0 0 0 62 
0 0 827 0 84969 
0 827 0 2494 0 
0 0 2494 0 0 
62 84969 0 0 0 
