multiobj/solutions/reallike/Ter-rl-5-2--0.80-1.0-3.out
7 2
1 0 3 4 2 
6031178 11479054 
2 3 0 4 1 
6746984 8815260 
3 2 0 1 4 
7728728 6018642 
0 4 3 1 2 
9867552 6000892 
3 4 1 0 2 
11391978 5983038 
0 2 1 3 4 
13978512 5975834 
0 4 1 3 2 
15780536 5926462 
